256	52	4	101	
16	16	13	18

0	0	0	0	0	0	4	1	2	3	4
1	9	0	9	0	3	1	5
2	0	10	0	5	7	1	23
3	1	3	6	0	1	1	6
4	0	8	0	2	3	1	8
5	7	0	8	0	8	1	11
6	7	0	5	5	6	1	7
7	8	3	0	4	7	2	14	18
8	5	0	3	0	6	1	9
9	6	5	5	3	1	2	10	11
10	4	6	0	0	10	1	12
11	3	5	2	0	1	1	13
12	2	0	0	0	2	1	17
13	0	0	0	7	2	1	15
14	2	0	0	0	10	1	16
15	0	0	0	7	9	1	20
16	0	0	4	0	3	1	19
17	1	7	7	2	3	1	18
18	6	0	0	8	1	1	26
19	10	1	0	0	5	1	22
20	0	9	0	0	5	2	21	39
21	0	2	4	8	8	1	23
22	1	4	0	8	4	1	24
23	4	3	2	0	3	2	24	28
24	0	0	0	6	6	1	25
25	10	0	0	8	3	2	32	47
26	0	3	0	0	5	1	27
27	0	0	8	9	7	1	30
28	0	2	0	0	8	1	29
29	0	0	3	0	10	1	38
30	0	9	0	0	7	1	31
31	0	0	0	10	9	1	34
32	0	10	3	0	1	1	33
33	2	0	0	0	1	1	35
34	6	0	0	0	6	1	37
35	8	7	4	1	3	1	36
36	3	0	0	0	3	1	40
37	0	5	0	0	7	1	39
38	0	3	0	1	6	1	43
39	0	0	0	3	8	1	42
40	4	9	1	0	8	1	41
41	5	0	0	5	7	1	44
42	0	1	2	1	6	1	47
43	0	0	0	10	1	1	46
44	0	7	5	0	1	1	45
45	9	1	6	7	1	1	48
46	0	0	4	0	6	1	50
47	0	0	4	5	7	1	49
48	0	7	5	0	9	1	51
49	0	0	9	2	9	1	51
50	4	6	6	9	3	1	51
51	0	0	0	0	0	0
